n = 50;
C = 5295;
w = [270,68,80,89,334,104,286,288,258,222,109,255,465,204,235,276,149,105,329,36,341,23,152,392,200,437,59,167,420,327,253,83,404,280,293,118,61,215,368,87,7,375,201,5,6,220,28,363,319,225];
p = [270,68,80,89,334,104,286,288,258,222,109,255,465,204,235,276,149,105,329,36,341,23,152,392,200,437,59,167,420,327,253,83,404,280,293,118,61,215,368,87,7,375,201,5,6,220,28,363,319,225];
